p cnf 44 32
-1 4 5 6 12 13 14 15 16 17 18 19 20 22 35 -32 0 
-2 8 35 -32 0 
-3 36 0 
-4 1 5 6 12 13 14 15 16 17 18 19 20 22 35 -32 0 
-5 1 4 6 12 13 14 15 16 17 18 19 20 22 35 -32 0 
-6 1 4 5 12 13 14 15 16 17 18 19 20 22 35 -32 0 
-7 37 0 
-8 2 35 -32 0 
-9 10 38 0 
-10 9 -11 37 0 
-12 1 4 5 6 13 14 15 16 17 18 19 20 22 35 -32 0 
-13 1 4 5 6 12 14 15 16 17 18 19 20 22 35 -32 0 
-14 1 4 5 6 12 13 15 16 17 18 19 20 22 35 -32 0 
-15 1 4 5 6 12 13 14 16 17 18 19 20 22 35 -32 0 
-16 1 4 5 6 12 13 14 15 17 18 19 20 22 35 -32 0 
-17 1 4 5 6 12 13 14 15 16 18 19 20 22 35 -32 0 
-18 1 4 5 6 12 13 14 15 16 17 19 20 22 35 -32 0 
-19 1 4 5 6 12 13 14 15 16 17 18 20 22 35 -32 0 
-20 1 4 5 6 12 13 14 15 16 17 18 19 22 35 -32 0 
-21 35 -32 0 
-22 1 4 5 6 12 13 14 15 16 17 18 19 20 35 -32 0 
-23 -24 39 0 
-25 -26 37 0 
-27 39 0 
-28 37 0 
-27 40 0 
-29 41 0 
-30 34 42 0 
-30 34 43 0 
-31 44 -25 0 
-32 -33 40 0 
-34 30 37 0 
